10
0 10 47 56 77 66 93 1 61 82 
12 0 98 51 22 47 56 25 7 38 
33 59 0 18 47 67 86 51 70 56 
6 46 72 0 29 65 5 78 57 87 
76 96 7 59 0 86 89 69 10 53 
67 23 90 100 84 0 11 57 46 42 
39 76 69 19 14 62 0 76 10 90 
25 66 56 26 72 49 38 0 94 5 
82 26 39 73 13 93 13 32 0 26 
96 70 19 17 73 88 93 60 92 0 
